\* Source Pyomo model name=Scheduler *\

min 
x1:
+2000 x2
+2000 x3
+2000 x4
+2000 x5
+2000 x6
+2000 x7
+2000 x8
+2000 x9
+2000 x10
+2000 x11
+20000000 x12
+20000000 x13
+20000000 x14
+20000000 x15
+20000000 x16
+20000000 x17
+20000000 x18
+20000000 x19
+20000000 x20
+20000000 x21

s.t.

c_u_x22_:
+1 x23
+1 x24
+1 x25
+1 x26
+1 x27
+1 x28
+1 x29
+1 x30
+1 x31
+1 x32
<= 1

c_u_x33_:
+1 x34
+1 x35
+1 x36
+1 x37
+1 x38
+1 x39
+1 x40
+1 x41
+1 x42
+1 x43
<= 1

c_u_x44_:
+1 x45
+1 x46
+1 x47
+1 x48
+1 x49
+1 x50
+1 x51
+1 x52
+1 x53
+1 x54
<= 1

c_u_x55_:
+1 x56
+1 x57
+1 x58
+1 x59
+1 x60
+1 x61
+1 x62
+1 x63
+1 x64
+1 x65
<= 1

c_u_x66_:
+1 x67
+1 x68
+1 x69
+1 x70
+1 x71
+1 x72
+1 x73
+1 x74
+1 x75
+1 x76
<= 1

c_u_x77_:
+1 x12
+1 x78
+1 x79
<= 1

c_l_x80_:
-1 x13
>= -1

c_u_x81_:
+1 x14
+1 x82
<= 1

c_l_x83_:
-1 x15
>= -1

c_u_x84_:
+1 x16
+1 x85
<= 1

c_u_x86_:
+1 x17
+1 x87
<= 1

c_u_x88_:
+1 x18
+1 x89
+1 x90
<= 1

c_l_x91_:
-1 x19
>= -1

c_l_x92_:
-1 x20
>= -1

c_u_x93_:
+1 x21
+1 x94
<= 1

c_e_x95_:
+1 x12
+1 x23
+1 x34
+1 x45
+1 x56
+1 x67
= 1

c_e_x96_:
+1 x13
+1 x24
+1 x35
+1 x46
+1 x57
+1 x68
+1 x85
= 1

c_e_x97_:
+1 x14
+1 x25
+1 x36
+1 x47
+1 x58
+1 x69
= 1

c_e_x98_:
+1 x15
+1 x26
+1 x37
+1 x48
+1 x59
+1 x70
+1 x78
+1 x82
+1 x87
+1 x94
= 1

c_e_x99_:
+1 x16
+1 x27
+1 x38
+1 x49
+1 x60
+1 x71
+1 x89
= 1

c_e_x100_:
+1 x17
+1 x28
+1 x39
+1 x50
+1 x61
+1 x72
+1 x90
= 1

c_e_x101_:
+1 x18
+1 x29
+1 x40
+1 x51
+1 x62
+1 x73
= 1

c_e_x102_:
+1 x19
+1 x30
+1 x41
+1 x52
+1 x63
+1 x74
= 1

c_e_x103_:
+1 x20
+1 x31
+1 x42
+1 x53
+1 x64
+1 x75
= 1

c_e_x104_:
+1 x21
+1 x32
+1 x43
+1 x54
+1 x65
+1 x76
+1 x79
= 1

c_u_x105_:
-1 x2
+7725.1256208601635 x23
+10724.795701093073 x34
+4663.864951714297 x45
+9713.99628988802 x56
+6819.609088328467 x67
<= 0

c_u_x106_:
-1 x3
+3044.327516538669 x24
+6387.662689195368 x35
+628.4336255154352 x46
+5358.4014371989315 x57
+3679.7277432849737 x68
<= 0

c_u_x107_:
-1 x4
+7636.9598409463515 x25
+10475.804789893482 x36
+4708.205202718994 x47
+9478.226041515778 x58
+6444.638625424375 x69
<= 0

c_u_x108_:
-1 x5
+5064.5214582404315 x26
+8657.609674960633 x37
+1882.663568685149 x48
+7636.269180729282 x59
+5923.431626746214 x70
<= 0

c_u_x109_:
-1 x6
+5972.416628132593 x27
+4870.145288615281 x38
+7077.531274634127 x49
+4559.035070128583 x60
+2785.2183769807843 x71
<= 0

c_u_x110_:
-1 x7
+4740.778264286077 x28
+4183.31374278574 x39
+5869.043021811794 x50
+3657.6358218435803 x61
+1579.0595862854268 x72
<= 0

c_u_x111_:
-1 x8
+3349.3096707009245 x29
+4024.140159770929 x40
+4310.502690335949 x51
+3183.443362390718 x62
+393.7584918145449 x73
<= 0

c_u_x112_:
-1 x9
+4406.646600627631 x30
+1857.2604202434115 x41
+6827.173057045567 x52
+1918.0120290995656 x63
+3372.821229658692 x74
<= 0

c_u_x113_:
-1 x10
+2190.117752901371 x31
+4285.807664636094 x42
+2953.4767958214434 x53
+3279.303350875491 x64
+1615.3810572797518 x75
<= 0

c_u_x114_:
-1 x11
+5984.53064829091 x32
+9530.209518391575 x43
+2760.8602106373933 x54
+8504.150819647706 x65
+6553.943427843659 x76
<= 0

c_u_x115_:
+1 x78
+1 x79
+1 x94
<= 2

c_u_x116_:
+1 x78
+1 x79
+1 x82
+1 x94
<= 3

c_u_x117_:
+1 x78
+1 x79
+1 x87
+1 x94
<= 3

c_u_x118_:
+1 x78
+1 x79
+1 x82
+1 x87
+1 x94
<= 4

c_u_x119_:
+1 x78
+1 x79
+1 x87
+1 x90
+1 x94
<= 4

c_u_x120_:
+1 x78
+1 x79
+1 x82
+1 x87
+1 x90
+1 x94
<= 5

c_u_x121_:
+1 x78
+1 x79
+1 x87
+1 x89
+1 x90
+1 x94
<= 5

c_u_x122_:
+1 x78
+1 x79
+1 x85
+1 x87
+1 x89
+1 x90
+1 x94
<= 6

c_u_x123_:
+1 x78
+1 x79
+1 x82
+1 x87
+1 x89
+1 x90
+1 x94
<= 6

c_u_x124_:
+1 x78
+1 x79
+1 x82
+1 x85
+1 x87
+1 x89
+1 x90
+1 x94
<= 7

bounds
   0 <= x2 <= +inf
   0 <= x3 <= +inf
   0 <= x4 <= +inf
   0 <= x5 <= +inf
   0 <= x6 <= +inf
   0 <= x7 <= +inf
   0 <= x8 <= +inf
   0 <= x9 <= +inf
   0 <= x10 <= +inf
   0 <= x11 <= +inf
   0 <= x12 <= 1
   0 <= x13 <= 1
   0 <= x14 <= 1
   0 <= x15 <= 1
   0 <= x16 <= 1
   0 <= x17 <= 1
   0 <= x18 <= 1
   0 <= x19 <= 1
   0 <= x20 <= 1
   0 <= x21 <= 1
   0 <= x23 <= 1
   0 <= x24 <= 1
   0 <= x25 <= 1
   0 <= x26 <= 1
   0 <= x27 <= 1
   0 <= x28 <= 1
   0 <= x29 <= 1
   0 <= x30 <= 1
   0 <= x31 <= 1
   0 <= x32 <= 1
   0 <= x34 <= 1
   0 <= x35 <= 1
   0 <= x36 <= 1
   0 <= x37 <= 1
   0 <= x38 <= 1
   0 <= x39 <= 1
   0 <= x40 <= 1
   0 <= x41 <= 1
   0 <= x42 <= 1
   0 <= x43 <= 1
   0 <= x45 <= 1
   0 <= x46 <= 1
   0 <= x47 <= 1
   0 <= x48 <= 1
   0 <= x49 <= 1
   0 <= x50 <= 1
   0 <= x51 <= 1
   0 <= x52 <= 1
   0 <= x53 <= 1
   0 <= x54 <= 1
   0 <= x56 <= 1
   0 <= x57 <= 1
   0 <= x58 <= 1
   0 <= x59 <= 1
   0 <= x60 <= 1
   0 <= x61 <= 1
   0 <= x62 <= 1
   0 <= x63 <= 1
   0 <= x64 <= 1
   0 <= x65 <= 1
   0 <= x67 <= 1
   0 <= x68 <= 1
   0 <= x69 <= 1
   0 <= x70 <= 1
   0 <= x71 <= 1
   0 <= x72 <= 1
   0 <= x73 <= 1
   0 <= x74 <= 1
   0 <= x75 <= 1
   0 <= x76 <= 1
   0 <= x78 <= 1
   0 <= x79 <= 1
   0 <= x82 <= 1
   0 <= x85 <= 1
   0 <= x87 <= 1
   0 <= x89 <= 1
   0 <= x90 <= 1
   0 <= x94 <= 1
general
  x2
  x3
  x4
  x5
  x6
  x7
  x8
  x9
  x10
  x11
binary
  x12
  x13
  x14
  x15
  x16
  x17
  x18
  x19
  x20
  x21
  x23
  x24
  x25
  x26
  x27
  x28
  x29
  x30
  x31
  x32
  x34
  x35
  x36
  x37
  x38
  x39
  x40
  x41
  x42
  x43
  x45
  x46
  x47
  x48
  x49
  x50
  x51
  x52
  x53
  x54
  x56
  x57
  x58
  x59
  x60
  x61
  x62
  x63
  x64
  x65
  x67
  x68
  x69
  x70
  x71
  x72
  x73
  x74
  x75
  x76
  x78
  x79
  x82
  x85
  x87
  x89
  x90
  x94
end
